4
8
20
1 1.3 1.55 1.75 2.1
15 38 6 28 42 16 41 28 32 22 19 29 7 35 30 13 31 9 23 29 12 24 49 29 30 47 24 21 48 21 11 26 37 28 14 34 34 9 46 46 36 6 34 19 26 43 36 12 18 24 47 16 11 13 33 44 37 20 24 15 37 29 45 37 22 43 23 16 32 47 43 20 5 47 28 21 30 44 44 38 11 18 42 7 44 39 14 11 26 17 17 30 32 37 26 40 46 27 14 44 29 37 35 30 12 47 41 9 25 39 20 28 43 31 47 49 27 39 21 45 7 38 47 32 44 8 27 36 9 45 21 41 14 24 19 40 19 42 44 41 23 20 13 48 11 41 46 5 43 29 20 37 43 36 33 7 13 45 5 18 